FILENAME:   /home/mcs001/s132664/testsets/IP/miplib2017/neos-2669500-cust.mps.gz
SETTINGS:   settings_isopr_ostrowskidynamicbranching_avoidsubtreenodes
TIMELIMIT:  7200
OUTPUTNAME: final_miplib_symretope_if_extended_generating_set_cpx_v802__settings_isopr_ostrowskidynamicbranching_avoidsubtreenodes__0__
BINNAME:    bin/symmetries.linux.x86_64.gnu.opt.cpx
BASENAME:   neos-2669500-cust.mps.gz
SEED:       0
@01 /home/mcs001/s132664/testsets/IP/miplib2017/neos-2669500-cust.mps.gz ===========
@02 neos-2669500-cust.mps.gz
@03 1686574002
SCIP version 8.0.2 [precision: 8 byte] [memory: block] [mode: optimized] [LP solver: CPLEX 20.1.0.0] [GitHash: 5f0473c]
Copyright (C) 2002-2022 Konrad-Zuse-Zentrum fuer Informationstechnik Berlin (ZIB)

Symmetry handling routines - (c) Marc Pfetsch, Thomas Rehn, Christopher Hojny.
[GitHash: a1587cb]


Turned off presolver <gateextraction>.
reading parameter file <../settings/settings_isopr_ostrowskidynamicbranching_avoidsubtreenodes.set> ...

Changed settings:
limits/time = 7200
limits/restarts = 0
constraints/orbitope/sepafreq = -1
constraints/orbitope/propfreq = 1
presolving/gateextraction/maxrounds = 0
propagating/isoprune/avoidsubtreenodes = TRUE
useisoprune = TRUE


solving problem ...

original problem has 112008 variables (110880 bin, 1120 int, 0 impl, 8 cont) and 105744 constraints
presolving:
(round 1, fast)       16248 del vars, 25764 del conss, 8 add conss, 12 chg bounds, 62160 chg sides, 62160 chg coeffs, 0 upgd conss, 0 impls, 16128 clqs
(round 2, exhaustive) 16248 del vars, 25772 del conss, 8 add conss, 1132 chg bounds, 62168 chg sides, 62160 chg coeffs, 0 upgd conss, 0 impls, 16128 clqs
(round 3, fast)       16248 del vars, 25912 del conss, 8 add conss, 1132 chg bounds, 125308 chg sides, 125300 chg coeffs, 0 upgd conss, 560 impls, 16128 clqs
(round 4, exhaustive) 16248 del vars, 25912 del conss, 8 add conss, 1132 chg bounds, 125308 chg sides, 125300 chg coeffs, 79272 upgd conss, 560 impls, 16128 clqs
   (49.1s) probing: 1000/95200 (1.1%) - 0 fixings, 0 aggregations, 219780 implications, 0 bound changes
   (49.1s) probing: 1001/95200 (1.1%) - 0 fixings, 0 aggregations, 220000 implications, 0 bound changes
   (49.1s) probing aborted: 1000/1000 successive useless probings
Required symmetry:			(1 bin, 0 int, 0 cont); (fixed: 0 bin, 1 int, 0 cont)
Time for symmetry detection:		1.04 	(matrix graph, 335080 nodes, 949200 edges)
Number of generators:			61 	(max: 668)
Log10 of symmetry group order:		26.9
Number of vars moved by some symmetry:	12320
Total time for symmetry detection:	1.24

Turned off presolver <domcol>.
Turned off presolver <components>.

presolving (5 rounds: 5 fast, 3 medium, 3 exhaustive):
 16248 deleted vars, 25912 deleted constraints, 8 added constraints, 1132 tightened bounds, 0 added holes, 125308 changed sides, 125300 changed coefficients
 63140 implications, 562136 cliques
presolved problem has 95760 variables (95200 bin, 560 int, 0 impl, 0 cont) and 79841 constraints
  63140 constraints of type <varbound>
      4 constraints of type <knapsack>
  16128 constraints of type <setppc>
    568 constraints of type <linear>
      1 constraints of type <symmetries>
transformed objective value is always integral (scale: 0.1)
Presolving Time: 49.99

 time | node  | left  |LP iter|LP it/n|mem/heur|mdpt |frac |vars |cons |cols |rows |cuts |confs|strbr|  dualbound   | primalbound  |  gap   
 74.0s|     1 |     0 |  1147 |     - |  1290M |   0 | 842 |  95k|  80k|  95k|  79k|   0 | 411 |   0 | 2.221900e+03 |      --      |    Inf 
  161s|     1 |     0 |  9007 |     - |  1339M |   0 | 716 |  95k|  80k|  95k|  79k|   0 | 411 |  26 | 2.221900e+03 |      --      |    Inf 
  214s|     1 |     0 |  9027 |     - |  1341M |   0 | 703 |  95k|  80k|  95k|  79k|   0 | 411 |  52 | 2.221900e+03 |      --      |    Inf 
  255s|     1 |     0 |  9045 |     - |  1351M |   0 | 699 |  95k|  79k|  95k|  79k|   0 | 414 |  65 | 2.221900e+03 |      --      |    Inf 
  286s|     1 |     0 |  9045 |     - |  1351M |   0 | 699 |  95k|  79k|  95k|  79k|   0 | 414 |  68 | 2.221900e+03 |      --      |    Inf 
  317s|     1 |     0 |  9045 |     - |  1351M |   0 | 699 |  95k|  79k|  95k|  79k|   0 | 414 |  69 | 2.221900e+03 |      --      |    Inf 
  351s|     1 |     0 |  9070 |     - |  1351M |   0 | 684 |  95k|  79k|  95k|  79k|   0 | 414 |  72 | 2.221900e+03 |      --      |    Inf 
  381s|     1 |     0 |  9070 |     - |  1355M |   0 | 684 |  95k|  79k|  95k|  79k|   0 | 414 |  73 | 2.221900e+03 |      --      |    Inf 
  411s|     1 |     0 |  9070 |     - |  1355M |   0 | 684 |  95k|  79k|  95k|  79k|   0 | 414 |  74 | 2.221900e+03 |      --      |    Inf 
  443s|     1 |     0 |  9117 |     - |  1355M |   0 | 622 |  95k|  79k|  95k|  79k|   0 | 414 |  78 | 2.221900e+03 |      --      |    Inf 
  475s|     1 |     0 |  9117 |     - |  1357M |   0 | 622 |  95k|  79k|  95k|  79k|   0 | 416 |  81 | 2.221900e+03 |      --      |    Inf 
  515s|     1 |     0 |  9333 |     - |  1357M |   0 | 602 |  95k|  79k|  95k|  79k|   0 | 416 |  95 | 2.221900e+03 |      --      |    Inf 
  541s|     1 |     0 |  9333 |     - |  1357M |   0 | 602 |  95k|  79k|  95k|  79k|   0 | 416 |  96 | 2.221900e+03 |      --      |    Inf 
  569s|     1 |     0 |  9333 |     - |  1357M |   0 | 602 |  95k|  79k|  95k|  79k|   0 | 416 |  97 | 2.221900e+03 |      --      |    Inf 
  596s|     1 |     0 |  9361 |     - |  1357M |   0 | 584 |  95k|  79k|  95k|  79k|   0 | 416 |  98 | 2.221900e+03 |      --      |    Inf 
 time | node  | left  |LP iter|LP it/n|mem/heur|mdpt |frac |vars |cons |cols |rows |cuts |confs|strbr|  dualbound   | primalbound  |  gap   
  624s|     1 |     0 |  9384 |     - |  1357M |   0 | 570 |  95k|  79k|  95k|  79k|   0 | 416 |  99 | 2.221900e+03 |      --      |    Inf 
  651s|     1 |     0 |  9410 |     - |  1357M |   0 | 553 |  95k|  79k|  95k|  79k|   0 | 416 | 100 | 2.221900e+03 |      --      |    Inf 
  686s|     1 |     0 |  9691 |     - |  1357M |   0 | 517 |  95k|  79k|  95k|  79k|   0 | 416 | 102 | 2.221900e+03 |      --      |    Inf 
  719s|     1 |     0 |  9691 |     - |  1357M |   0 | 517 |  95k|  79k|  95k|  79k|   0 | 416 | 105 | 2.221900e+03 |      --      |    Inf 
  747s|     1 |     0 |  9691 |     - |  1357M |   0 | 517 |  95k|  79k|  95k|  79k|   0 | 416 | 106 | 2.221900e+03 |      --      |    Inf 
  775s|     1 |     0 | 13124 |     - |  1357M |   0 | 718 |  95k|  79k|  95k|  79k|   0 | 416 | 108 | 2.221900e+03 |      --      |    Inf 
  797s|     1 |     0 | 13124 |     - |  1357M |   0 | 718 |  95k|  79k|  95k|  79k|   0 | 417 | 110 | 2.221900e+03 |      --      |    Inf 
  817s|     1 |     0 | 13124 |     - |  1357M |   0 | 718 |  95k|  79k|  95k|  79k|   0 | 417 | 111 | 2.221900e+03 |      --      |    Inf 
  905s|     1 |     0 | 13124 |     - |  1357M |   0 | 718 |  95k|  79k|  95k|  79k|   0 | 417 | 112 | 2.221900e+03 |      --      |    Inf 
  946s|     1 |     0 | 13895 |     - |  1357M |   0 | 631 |  95k|  79k|  95k|  79k|   0 | 417 | 126 | 2.221900e+03 |      --      |    Inf 
  966s|     1 |     0 | 13895 |     - |  1357M |   0 | 631 |  95k|  79k|  95k|  79k|   0 | 417 | 128 | 2.221900e+03 |      --      |    Inf 
  988s|     1 |     0 | 13895 |     - |  1357M |   0 | 631 |  95k|  79k|  95k|  79k|   0 | 417 | 129 | 2.221900e+03 |      --      |    Inf 
 1009s|     1 |     0 | 14006 |     - |  1357M |   0 | 605 |  95k|  79k|  95k|  79k|   0 | 417 | 131 | 2.221900e+03 |      --      |    Inf 
 1031s|     1 |     0 | 14130 |     - |  1357M |   0 | 536 |  95k|  79k|  95k|  79k|   0 | 417 | 133 | 2.221900e+03 |      --      |    Inf 
 1051s|     1 |     0 | 14130 |     - |  1357M |   0 | 536 |  95k|  79k|  95k|  79k|   0 | 417 | 134 | 2.221900e+03 |      --      |    Inf 
 time | node  | left  |LP iter|LP it/n|mem/heur|mdpt |frac |vars |cons |cols |rows |cuts |confs|strbr|  dualbound   | primalbound  |  gap   
 1078s|     1 |     0 | 14186 |     - |  1357M |   0 | 528 |  95k|  79k|  95k|  79k|   0 | 417 | 145 | 2.221900e+03 |      --      |    Inf 
 1099s|     1 |     0 | 14244 |     - |  1357M |   0 | 516 |  95k|  79k|  95k|  79k|   0 | 417 | 146 | 2.221900e+03 |      --      |    Inf 
 1120s|     1 |     0 | 14288 |     - |  1357M |   0 | 497 |  95k|  79k|  95k|  79k|   0 | 417 | 147 | 2.221900e+03 |      --      |    Inf 
 1146s|     1 |     0 | 16141 |     - |  1357M |   0 | 595 |  95k|  79k|  95k|  79k|   0 | 417 | 148 | 2.221900e+03 |      --      |    Inf 
 1169s|     1 |     0 | 16141 |     - |  1357M |   0 | 595 |  95k|  79k|  95k|  79k|   0 | 417 | 152 | 2.221900e+03 |      --      |    Inf 
 1190s|     1 |     0 | 16227 |     - |  1357M |   0 | 544 |  95k|  79k|  95k|  79k|   0 | 417 | 153 | 2.221900e+03 |      --      |    Inf 
 1212s|     1 |     0 | 16502 |     - |  1357M |   0 | 578 |  95k|  79k|  95k|  79k|   0 | 417 | 156 | 2.221900e+03 |      --      |    Inf 
 1231s|     1 |     0 | 16502 |     - |  1357M |   0 | 578 |  95k|  79k|  95k|  79k|   0 | 417 | 157 | 2.221900e+03 |      --      |    Inf 
 1252s|     1 |     0 | 16619 |     - |  1357M |   0 | 554 |  95k|  79k|  95k|  79k|   0 | 417 | 158 | 2.221900e+03 |      --      |    Inf 
 1273s|     1 |     0 | 16619 |     - |  1357M |   0 | 554 |  95k|  78k|  95k|  79k|   0 | 417 | 159 | 2.221900e+03 |      --      |    Inf 
 1292s|     1 |     0 | 16619 |     - |  1357M |   0 | 554 |  95k|  78k|  95k|  79k|   0 | 417 | 160 | 2.221900e+03 |      --      |    Inf 
 1311s|     1 |     0 | 16619 |     - |  1357M |   0 | 554 |  95k|  78k|  95k|  79k|   0 | 417 | 161 | 2.221900e+03 |      --      |    Inf 
 1338s|     1 |     0 | 16683 |     - |  1357M |   0 | 508 |  95k|  78k|  95k|  79k|   0 | 417 | 167 | 2.221900e+03 |      --      |    Inf 
 1366s|     1 |     0 | 18887 |     - |  1357M |   0 | 728 |  95k|  78k|  95k|  79k|   0 | 417 | 172 | 2.221900e+03 |      --      |    Inf 
 1386s|     1 |     0 | 18887 |     - |  1357M |   0 | 728 |  95k|  78k|  95k|  79k|   0 | 417 | 173 | 2.221900e+03 |      --      |    Inf 
 time | node  | left  |LP iter|LP it/n|mem/heur|mdpt |frac |vars |cons |cols |rows |cuts |confs|strbr|  dualbound   | primalbound  |  gap   
 1406s|     1 |     0 | 19058 |     - |  1357M |   0 | 733 |  95k|  78k|  95k|  79k|   0 | 417 | 175 | 2.221900e+03 |      --      |    Inf 
 1433s|     1 |     0 | 20891 |     - |  1357M |   0 | 672 |  95k|  78k|  95k|  79k|   0 | 417 | 180 | 2.221900e+03 |      --      |    Inf 
 1452s|     1 |     0 | 20897 |     - |  1357M |   0 | 668 |  95k|  78k|  95k|  79k|   0 | 420 | 182 | 2.221900e+03 |      --      |    Inf 
 1472s|     1 |     0 | 21022 |     - |  1357M |   0 | 650 |  95k|  78k|  95k|  79k|   0 | 420 | 184 | 2.221900e+03 |      --      |    Inf 
 1499s|     1 |     0 | 21300 |     - |  1357M |   0 | 545 |  95k|  78k|  95k|  79k|   0 | 421 | 189 | 2.221900e+03 |      --      |    Inf 
 1523s|     1 |     0 | 21837 |     - |  1357M |   0 | 505 |  95k|  78k|  95k|  79k|   0 | 424 | 191 | 2.221900e+03 |      --      |    Inf 
 1547s|     1 |     0 | 23662 |     - |  1357M |   0 | 686 |  95k|  78k|  95k|  79k|   0 | 424 | 193 | 2.221900e+03 |      --      |    Inf 
 1567s|     1 |     0 | 23770 |     - |  1357M |   0 | 616 |  95k|  78k|  95k|  79k|   0 | 424 | 196 | 2.221900e+03 |      --      |    Inf 
 1587s|     1 |     0 | 23905 |     - |  1357M |   0 | 579 |  95k|  78k|  95k|  79k|   0 | 424 | 197 | 2.221900e+03 |      --      |    Inf 
 1606s|     1 |     0 | 23905 |     - |  1357M |   0 | 579 |  95k|  78k|  95k|  79k|   0 | 424 | 198 | 2.221900e+03 |      --      |    Inf 
 1632s|     1 |     0 | 26132 |     - |  1357M |   0 | 742 |  95k|  78k|  95k|  79k|   0 | 424 | 199 | 2.221900e+03 |      --      |    Inf 
 1656s|     1 |     0 | 26132 |     - |  1357M |   0 | 742 |  95k|  78k|  95k|  79k|   0 | 424 | 202 | 2.221900e+03 |      --      |    Inf 
 1678s|     1 |     0 | 26132 |     - |  1357M |   0 | 742 |  95k|  78k|  95k|  79k|   0 | 424 | 204 | 2.221900e+03 |      --      |    Inf 
 1702s|     1 |     0 | 26242 |     - |  1357M |   0 | 761 |  95k|  78k|  95k|  79k|   0 | 424 | 205 | 2.221900e+03 |      --      |    Inf 
 1725s|     1 |     0 | 26550 |     - |  1357M |   0 | 693 |  95k|  78k|  95k|  79k|   0 | 424 | 206 | 2.221900e+03 |      --      |    Inf 
 time | node  | left  |LP iter|LP it/n|mem/heur|mdpt |frac |vars |cons |cols |rows |cuts |confs|strbr|  dualbound   | primalbound  |  gap   
 1746s|     1 |     0 | 26550 |     - |  1357M |   0 | 693 |  95k|  78k|  95k|  79k|   0 | 424 | 208 | 2.221900e+03 |      --      |    Inf 
 1771s|     1 |     0 | 26898 |     - |  1357M |   0 | 605 |  95k|  78k|  95k|  79k|   0 | 424 | 213 | 2.221900e+03 |      --      |    Inf 
 1792s|     1 |     0 | 26898 |     - |  1357M |   0 | 605 |  95k|  78k|  95k|  79k|   0 | 424 | 214 | 2.221900e+03 |      --      |    Inf 
 1840s|     1 |     0 | 27170 |     - |  1357M |   0 | 560 |  95k|  78k|  95k|  79k|   0 | 424 | 245 | 2.221900e+03 |      --      |    Inf 
 1860s|     1 |     0 | 27170 |     - |  1357M |   0 | 560 |  95k|  78k|  95k|  79k|   0 | 424 | 247 | 2.221900e+03 |      --      |    Inf 
 1898s|     1 |     0 | 29695 |     - |  1357M |   0 | 715 |  95k|  78k|  95k|  79k|   0 | 424 | 264 | 2.221900e+03 |      --      |    Inf 
 1922s|     1 |     0 | 29735 |     - |  1357M |   0 | 745 |  95k|  78k|  95k|  79k|   0 | 424 | 266 | 2.221900e+03 |      --      |    Inf 
 1942s|     1 |     0 | 29882 |     - |  1357M |   0 | 775 |  95k|  78k|  95k|  79k|   0 | 424 | 268 | 2.221900e+03 |      --      |    Inf 
 1962s|     1 |     0 | 29963 |     - |  1355M |   0 | 707 |  95k|  78k|  95k|  79k|   0 | 424 | 270 | 2.221900e+03 |      --      |    Inf 
 1982s|     1 |     0 | 30017 |     - |  1355M |   0 | 702 |  95k|  78k|  95k|  79k|   0 | 424 | 271 | 2.221900e+03 |      --      |    Inf 
 2006s|     1 |     0 | 30017 |     - |  1355M |   0 | 702 |  95k|  78k|  95k|  79k|   0 | 424 | 274 | 2.221900e+03 |      --      |    Inf 
 2026s|     1 |     0 | 30110 |     - |  1355M |   0 | 633 |  95k|  78k|  95k|  79k|   0 | 424 | 275 | 2.221900e+03 |      --      |    Inf 
 2049s|     1 |     0 | 30211 |     - |  1355M |   0 | 571 |  95k|  78k|  95k|  79k|   0 | 424 | 278 | 2.221900e+03 |      --      |    Inf 
 2069s|     1 |     0 | 30211 |     - |  1355M |   0 | 571 |  95k|  78k|  95k|  79k|   0 | 424 | 279 | 2.221900e+03 |      --      |    Inf 
 2095s|     1 |     0 | 30404 |     - |  1355M |   0 | 514 |  95k|  78k|  95k|  79k|   0 | 424 | 289 | 2.221900e+03 |      --      |    Inf 
 time | node  | left  |LP iter|LP it/n|mem/heur|mdpt |frac |vars |cons |cols |rows |cuts |confs|strbr|  dualbound   | primalbound  |  gap   
 2121s|     1 |     0 | 30504 |     - |  1355M |   0 | 441 |  95k|  78k|  95k|  79k|   0 | 424 | 295 | 2.221900e+03 |      --      |    Inf 
 2141s|     1 |     0 | 30504 |     - |  1355M |   0 | 441 |  95k|  78k|  95k|  79k|   0 | 424 | 296 | 2.221900e+03 |      --      |    Inf 
 2162s|     1 |     0 | 30558 |     - |  1355M |   0 | 431 |  95k|  78k|  95k|  79k|   0 | 424 | 302 | 2.221900e+03 |      --      |    Inf 
 2183s|     1 |     0 | 30558 |     - |  1355M |   0 | 431 |  95k|  78k|  95k|  79k|   0 | 424 | 305 | 2.221900e+03 |      --      |    Inf 
 2216s|     1 |     0 | 30902 |     - |  1355M |   0 | 406 |  95k|  78k|  95k|  79k|   0 | 424 | 324 | 2.221900e+03 |      --      |    Inf 
 2238s|     1 |     0 | 30902 |     - |  1355M |   0 | 406 |  95k|  78k|  95k|  79k|   0 | 424 | 327 | 2.221900e+03 |      --      |    Inf 
 2259s|     1 |     0 | 30953 |     - |  1355M |   0 | 360 |  95k|  78k|  95k|  79k|   0 | 424 | 332 | 2.221900e+03 |      --      |    Inf 
 2280s|     1 |     0 | 30969 |     - |  1355M |   0 | 350 |  95k|  78k|  95k|  79k|   0 | 425 | 337 | 2.221900e+03 |      --      |    Inf 
 2314s|     1 |     0 | 33436 |     - |  1355M |   0 | 648 |  95k|  78k|  95k|  79k|   0 | 426 | 350 | 2.221900e+03 |      --      |    Inf 
 2338s|     1 |     0 | 33632 |     - |  1356M |   0 | 601 |  95k|  77k|  95k|  79k|   0 | 426 | 355 | 2.221900e+03 |      --      |    Inf 
 2379s|     1 |     0 | 33632 |     - |  1356M |   0 | 601 |  95k|  77k|  95k|  79k|   0 | 426 | 367 | 2.221900e+03 |      --      |    Inf 
 2400s|     1 |     0 | 33632 |     - |  1356M |   0 | 601 |  95k|  77k|  95k|  79k|   0 | 426 | 369 | 2.221900e+03 |      --      |    Inf 
 2429s|     1 |     0 | 33848 |     - |  1356M |   0 | 563 |  95k|  77k|  95k|  79k|   0 | 426 | 379 | 2.221900e+03 |      --      |    Inf 
 2449s|     1 |     0 | 33848 |     - |  1356M |   0 | 563 |  95k|  77k|  95k|  79k|   0 | 426 | 380 | 2.221900e+03 |      --      |    Inf 
 2470s|     1 |     0 | 33848 |     - |  1356M |   0 | 563 |  95k|  77k|  95k|  79k|   0 | 426 | 381 | 2.221900e+03 |      --      |    Inf 
 time | node  | left  |LP iter|LP it/n|mem/heur|mdpt |frac |vars |cons |cols |rows |cuts |confs|strbr|  dualbound   | primalbound  |  gap   
 2493s|     1 |     0 | 34002 |     - |  1356M |   0 | 478 |  95k|  77k|  95k|  79k|   0 | 426 | 382 | 2.221900e+03 |      --      |    Inf 
 2515s|     1 |     0 | 34287 |     - |  1356M |   0 | 466 |  95k|  77k|  95k|  79k|   0 | 430 | 385 | 2.221900e+03 |      --      |    Inf 
 2547s|     1 |     0 | 36322 |     - |  1356M |   0 | 715 |  95k|  77k|  95k|  79k|   0 | 430 | 396 | 2.221900e+03 |      --      |    Inf 
 2578s|     1 |     0 | 37961 |     - |  1356M |   0 | 762 |  95k|  77k|  95k|  79k|   0 | 431 | 402 | 2.221900e+03 |      --      |    Inf 
 2600s|     1 |     0 | 37961 |     - |  1356M |   0 | 762 |  95k|  77k|  95k|  79k|   0 | 431 | 403 | 2.221900e+03 |      --      |    Inf 
 2620s|     1 |     0 | 37961 |     - |  1356M |   0 | 762 |  95k|  77k|  95k|  79k|   0 | 431 | 405 | 2.221900e+03 |      --      |    Inf 
 2643s|     1 |     0 | 38240 |     - |  1356M |   0 | 712 |  95k|  77k|  95k|  79k|   0 | 431 | 406 | 2.221900e+03 |      --      |    Inf 
 2663s|     1 |     0 | 38240 |     - |  1356M |   0 | 712 |  95k|  77k|  95k|  79k|   0 | 431 | 408 | 2.221900e+03 |      --      |    Inf 
 2690s|     1 |     0 | 38556 |     - |  1356M |   0 | 563 |  95k|  77k|  95k|  79k|   0 | 431 | 419 | 2.221900e+03 |      --      |    Inf 
 2712s|     1 |     0 | 38556 |     - |  1356M |   0 | 563 |  95k|  77k|  95k|  79k|   0 | 431 | 421 | 2.221900e+03 |      --      |    Inf 
 2733s|     1 |     0 | 38556 |     - |  1356M |   0 | 563 |  95k|  77k|  95k|  79k|   0 | 431 | 423 | 2.221900e+03 |      --      |    Inf 
 2799s|     1 |     0 | 40094 |     - |  1356M |   0 | 752 |  95k|  77k|  95k|  79k|   0 | 431 | 462 | 2.221900e+03 |      --      |    Inf 
 2830s|     1 |     0 | 40159 |     - |  1356M |   0 | 730 |  95k|  77k|  95k|  79k|   0 | 431 | 471 | 2.221900e+03 |      --      |    Inf 
 2850s|     1 |     0 | 40159 |     - |  1356M |   0 | 730 |  95k|  77k|  95k|  79k|   0 | 431 | 472 | 2.221900e+03 |      --      |    Inf 
 2897s|     1 |     0 | 41921 |     - |  1356M |   0 | 722 |  95k|  77k|  95k|  79k|   0 | 431 | 490 | 2.221900e+03 |      --      |    Inf 
 time | node  | left  |LP iter|LP it/n|mem/heur|mdpt |frac |vars |cons |cols |rows |cuts |confs|strbr|  dualbound   | primalbound  |  gap   
 2920s|     1 |     0 | 41921 |     - |  1356M |   0 | 722 |  95k|  77k|  95k|  79k|   0 | 431 | 492 | 2.221900e+03 |      --      |    Inf 
 2965s|     1 |     0 | 41974 |     - |  1356M |   0 | 713 |  95k|  77k|  95k|  79k|   0 | 431 | 516 | 2.221900e+03 |      --      |    Inf 
 3001s|     1 |     0 | 42088 |     - |  1356M |   0 | 621 |  95k|  77k|  95k|  79k|   0 | 432 | 530 | 2.221900e+03 |      --      |    Inf 
 3047s|     1 |     0 | 43467 |     - |  1356M |   0 | 739 |  95k|  77k|  95k|  79k|   0 | 433 | 548 | 2.221900e+03 |      --      |    Inf 
 3095s|     1 |     0 | 43628 |     - |  1356M |   0 | 723 |  95k|  77k|  95k|  79k|   0 | 433 | 570 | 2.221900e+03 |      --      |    Inf 
 3117s|     1 |     0 | 43628 |     - |  1356M |   0 | 723 |  95k|  77k|  95k|  79k|   0 | 433 | 571 | 2.221900e+03 |      --      |    Inf 
 3152s|     1 |     0 | 43628 |     - |  1356M |   0 | 723 |  95k|  77k|  95k|  79k|   0 | 433 | 578 | 2.221900e+03 |      --      |    Inf 
 3174s|     1 |     0 | 43628 |     - |  1356M |   0 | 723 |  95k|  77k|  95k|  79k|   0 | 433 | 579 | 2.221900e+03 |      --      |    Inf 
 3196s|     1 |     0 | 43628 |     - |  1356M |   0 | 723 |  95k|  77k|  95k|  79k|   0 | 433 | 580 | 2.221900e+03 |      --      |    Inf 
 3248s|     1 |     0 | 43797 |     - |  1356M |   0 | 708 |  95k|  77k|  95k|  79k|   0 | 433 | 599 | 2.221900e+03 |      --      |    Inf 
 3271s|     1 |     0 | 43797 |     - |  1356M |   0 | 708 |  95k|  77k|  95k|  79k|   0 | 433 | 600 | 2.221900e+03 |      --      |    Inf 
 3294s|     1 |     0 | 43861 |     - |  1356M |   0 | 744 |  95k|  77k|  95k|  79k|   0 | 433 | 601 | 2.221900e+03 |      --      |    Inf 
 3324s|     1 |     0 | 43861 |     - |  1356M |   0 | 744 |  95k|  77k|  95k|  79k|   0 | 433 | 606 | 2.221900e+03 |      --      |    Inf 
 3386s|     1 |     0 | 46222 |     - |  1356M |   0 | 814 |  95k|  77k|  95k|  79k|   0 | 433 | 632 | 2.221900e+03 |      --      |    Inf 
 3409s|     1 |     0 | 46222 |     - |  1356M |   0 | 814 |  95k|  77k|  95k|  79k|   0 | 433 | 634 | 2.221900e+03 |      --      |    Inf 
 time | node  | left  |LP iter|LP it/n|mem/heur|mdpt |frac |vars |cons |cols |rows |cuts |confs|strbr|  dualbound   | primalbound  |  gap   
 3474s|     1 |     0 | 46943 |     - |  1356M |   0 | 767 |  95k|  77k|  95k|  79k|   0 | 433 | 656 | 2.221900e+03 |      --      |    Inf 
 3497s|     1 |     0 | 47150 |     - |  1356M |   0 | 759 |  95k|  77k|  95k|  79k|   0 | 433 | 657 | 2.221900e+03 |      --      |    Inf 
 3517s|     1 |     0 | 47150 |     - |  1356M |   0 | 759 |  95k|  77k|  95k|  79k|   0 | 433 | 658 | 2.221900e+03 |      --      |    Inf 
 3540s|     1 |     0 | 47602 |     - |  1356M |   0 | 649 |  95k|  77k|  95k|  79k|   0 | 433 | 659 | 2.221900e+03 |      --      |    Inf 
 3565s|     1 |     0 | 48541 |     - |  1356M |   0 | 658 |  95k|  77k|  95k|  79k|   0 | 433 | 660 | 2.221900e+03 |      --      |    Inf 
 3607s|     1 |     0 | 50259 |     - |  1356M |   0 | 773 |  95k|  77k|  95k|  79k|   0 | 433 | 677 | 2.221900e+03 |      --      |    Inf 
 3629s|     1 |     0 | 50309 |     - |  1356M |   0 | 719 |  95k|  77k|  95k|  79k|   0 | 433 | 680 | 2.221900e+03 |      --      |    Inf 
 3649s|     1 |     0 | 50309 |     - |  1356M |   0 | 719 |  95k|  77k|  95k|  79k|   0 | 433 | 681 | 2.221900e+03 |      --      |    Inf 
 3670s|     1 |     0 | 50309 |     - |  1356M |   0 | 719 |  95k|  77k|  95k|  79k|   0 | 433 | 685 | 2.221900e+03 |      --      |    Inf 
 3703s|     1 |     0 | 50406 |     - |  1356M |   0 | 678 |  95k|  77k|  95k|  79k|   0 | 433 | 695 | 2.221900e+03 |      --      |    Inf 
 3730s|     1 |     0 | 52058 |     - |  1356M |   0 | 679 |  95k|  77k|  95k|  79k|   0 | 433 | 696 | 2.221900e+03 |      --      |    Inf 
 3790s|     1 |     0 | 53814 |     - |  1357M |   0 | 885 |  95k|  77k|  95k|  79k|   0 | 433 | 726 | 2.221900e+03 |      --      |    Inf 
 3853s|     1 |     0 | 55565 |     - |  1357M |   0 | 845 |  95k|  77k|  95k|  79k|   0 | 433 | 750 | 2.221900e+03 |      --      |    Inf 
 3924s|     1 |     0 | 57154 |     - |  1357M |   0 | 860 |  95k|  77k|  95k|  79k|   0 | 433 | 771 | 2.221900e+03 |      --      |    Inf 
 3943s|     1 |     0 | 57154 |     - |  1357M |   0 | 860 |  95k|  77k|  95k|  79k|   0 | 434 | 773 | 2.221900e+03 |      --      |    Inf 
 time | node  | left  |LP iter|LP it/n|mem/heur|mdpt |frac |vars |cons |cols |rows |cuts |confs|strbr|  dualbound   | primalbound  |  gap   
 3980s|     1 |     0 | 59043 |     - |  1357M |   0 | 869 |  95k|  77k|  95k|  79k|   0 | 434 | 783 | 2.221900e+03 |      --      |    Inf 
 4000s|     1 |     0 | 59043 |     - |  1357M |   0 | 869 |  95k|  77k|  95k|  79k|   0 | 434 | 784 | 2.221900e+03 |      --      |    Inf 
 4043s|     1 |     0 | 59169 |     - |  1357M |   0 | 839 |  95k|  77k|  95k|  79k|   0 | 434 | 801 | 2.221900e+03 |      --      |    Inf 
 4083s|     1 |     0 | 60658 |     - |  1357M |   0 | 795 |  95k|  77k|  95k|  79k|   0 | 434 | 815 | 2.221900e+03 |      --      |    Inf 
 4104s|     1 |     0 | 60658 |     - |  1357M |   0 | 795 |  95k|  77k|  95k|  79k|   0 | 434 | 816 | 2.221900e+03 |      --      |    Inf 
 4169s|     1 |     0 | 60861 |     - |  1357M |   0 | 714 |  95k|  77k|  95k|  79k|   0 | 434 | 842 | 2.221900e+03 |      --      |    Inf 
 4224s|     1 |     0 | 61086 |     - |  1357M |   0 | 687 |  95k|  77k|  95k|  79k|   0 | 435 | 869 | 2.221900e+03 |      --      |    Inf 
 4281s|     1 |     0 | 63366 |     - |  1357M |   0 | 818 |  95k|  77k|  95k|  79k|   0 | 435 | 898 | 2.221900e+03 |      --      |    Inf 
 4303s|     1 |     0 | 63536 |     - |  1357M |   0 | 881 |  95k|  77k|  95k|  79k|   0 | 435 | 899 | 2.221900e+03 |      --      |    Inf 
 4346s|     1 |     0 | 63908 |     - |  1357M |   0 | 700 |  95k|  76k|  95k|  79k|   0 | 435 | 912 | 2.221900e+03 |      --      |    Inf 
 4400s|     1 |     0 | 64011 |     - |  1357M |   0 | 651 |  95k|  76k|  95k|  79k|   0 | 435 | 932 | 2.221900e+03 |      --      |    Inf 
 4465s|     1 |     0 | 65800 |     - |  1357M |   0 | 722 |  95k|  76k|  95k|  79k|   0 | 436 | 965 | 2.221900e+03 |      --      |    Inf 
 4519s|     1 |     0 | 66413 |     - |  1357M |   0 | 731 |  95k|  76k|  95k|  79k|   0 | 436 | 983 | 2.221900e+03 |      --      |    Inf 
 4584s|     1 |     0 | 67014 |     - |  1357M |   0 | 605 |  95k|  76k|  95k|  79k|   0 | 436 |1002 | 2.221900e+03 |      --      |    Inf 
 4628s|     1 |     0 | 67255 |     - |  1357M |   0 | 576 |  95k|  76k|  95k|  79k|   0 | 436 |1016 | 2.221900e+03 |      --      |    Inf 
 time | node  | left  |LP iter|LP it/n|mem/heur|mdpt |frac |vars |cons |cols |rows |cuts |confs|strbr|  dualbound   | primalbound  |  gap   
 4676s|     1 |     0 | 67377 |     - |  1357M |   0 | 518 |  95k|  76k|  95k|  79k|   0 | 437 |1036 | 2.221900e+03 |      --      |    Inf 
 4697s|     1 |     0 | 67377 |     - |  1357M |   0 | 518 |  95k|  76k|  95k|  79k|   0 | 437 |1037 | 2.221900e+03 |      --      |    Inf 
 4718s|     1 |     0 | 67377 |     - |  1357M |   0 | 518 |  95k|  76k|  95k|  79k|   0 | 437 |1039 | 2.221900e+03 |      --      |    Inf 
 4744s|     1 |     0 | 67442 |     - |  1357M |   0 | 483 |  95k|  76k|  95k|  79k|   0 | 437 |1046 | 2.221900e+03 |      --      |    Inf 
 4771s|     1 |     0 | 69408 |     - |  1357M |   0 | 748 |  95k|  76k|  95k|  79k|   0 | 437 |1047 | 2.221900e+03 |      --      |    Inf 
 4795s|     1 |     0 | 69408 |     - |  1357M |   0 | 748 |  95k|  76k|  95k|  79k|   0 | 437 |1049 | 2.221900e+03 |      --      |    Inf 
 4870s|     1 |     0 | 69501 |     - |  1357M |   0 | 781 |  95k|  76k|  95k|  79k|   0 | 437 |1080 | 2.221900e+03 |      --      |    Inf 
 4930s|     1 |     0 | 71901 |     - |  1357M |   0 | 851 |  95k|  76k|  95k|  79k|   0 | 437 |1105 | 2.221900e+03 |      --      |    Inf 
 4975s|     1 |     0 | 72115 |     - |  1357M |   0 | 696 |  95k|  76k|  95k|  79k|   0 | 437 |1121 | 2.221900e+03 |      --      |    Inf 
 5009s|     1 |     0 | 74625 |     - |  1357M |   0 | 756 |  95k|  76k|  95k|  79k|   0 | 438 |1125 | 2.221900e+03 |      --      |    Inf 
 5068s|     1 |     0 | 75158 |     - |  1357M |   0 | 669 |  95k|  76k|  95k|  79k|   0 | 438 |1142 | 2.221900e+03 |      --      |    Inf 
 5089s|     1 |     0 | 75158 |     - |  1357M |   0 | 669 |  95k|  76k|  95k|  79k|   0 | 438 |1144 | 2.221900e+03 |      --      |    Inf 
 5111s|     1 |     0 | 75158 |     - |  1357M |   0 | 669 |  95k|  76k|  95k|  79k|   0 | 438 |1145 | 2.221900e+03 |      --      |    Inf 
 5155s|     1 |     0 | 77783 |     - |  1357M |   0 | 855 |  95k|  76k|  95k|  79k|   0 | 438 |1158 | 2.221900e+03 |      --      |    Inf 
 5223s|     1 |     0 | 79505 |     - |  1357M |   0 | 790 |  95k|  76k|  95k|  79k|   0 | 438 |1180 | 2.221900e+03 |      --      |    Inf 
 time | node  | left  |LP iter|LP it/n|mem/heur|mdpt |frac |vars |cons |cols |rows |cuts |confs|strbr|  dualbound   | primalbound  |  gap   
 5312s|     1 |     0 | 81071 |     - |  1357M |   0 | 846 |  95k|  76k|  95k|  79k|   0 | 438 |1206 | 2.221900e+03 |      --      |    Inf 
 5370s|     1 |     0 | 82970 |     - |  1357M |   0 | 851 |  95k|  76k|  95k|  79k|   0 | 442 |1227 | 2.221900e+03 |      --      |    Inf 
 5406s|     1 |     0 | 83035 |     - |  1357M |   0 | 828 |  95k|  76k|  95k|  79k|   0 | 443 |1241 | 2.221900e+03 |      --      |    Inf 
 5479s|     1 |     0 | 85006 |     - |  1357M |   0 | 889 |  95k|  76k|  95k|  79k|   0 | 443 |1263 | 2.221900e+03 |      --      |    Inf 
 5561s|     1 |     0 | 85067 |     - |  1357M |   0 | 900 |  95k|  76k|  95k|  79k|   0 | 443 |1294 | 2.221900e+03 |      --      |    Inf 
 5614s|     1 |     0 | 85122 |     - |  1357M |   0 | 827 |  95k|  76k|  95k|  79k|   0 | 443 |1320 | 2.221900e+03 |      --      |    Inf 
 5674s|     1 |     2 | 85122 |     - |  1357M |   0 | 827 |  95k|  76k|  95k|  79k|   0 | 443 |1343 | 2.221900e+03 |      --      |    Inf 
 6461s|   100 |    83 |144675 | 601.6 |  1373M |  18 | 552 |  95k|  76k|  95k|  79k|   0 | 451 |1718 | 2.221900e+03 |      --      |    Inf 
 6789s|   200 |   163 |212670 | 641.0 |  1392M |  21 | 632 |  95k|  76k|  95k|  79k|   0 | 476 |1801 | 2.221900e+03 |      --      |    Inf 
 7017s|   300 |   239 |253269 | 562.4 |  1401M |  37 | 555 |  95k|  76k|  95k|  79k|   0 | 513 |1832 | 2.221900e+03 |      --      |    Inf 

SCIP Status        : solving was interrupted [time limit reached]
Solving Time (sec) : 7200.02
Solving Nodes      : 349
Primal Bound       : +1.00000000000000e+20 (0 solutions)
Dual Bound         : +2.22190000000011e+03
Gap                : infinite

Number of variables fixed to 0 by isomorphism pruning:	     4
Number of variables fixed to 1 by isomorphism pruning:	     0
@04 1686581204
